config:eval_tsp="2022-12-07 08:43:14"
config:arch=arch5
config:num_train_worker=6
config:num_sample_worker=2
config:sample_type=khop2
config:root_path=/nvme/samgraph/
config:dataset=com-friendster
config:pipeline=False
config:cache_policy=coll_cache_asymm_link
config:cache_percentage=0.2
config:num_epoch=4
config:batch_size=8000
config:num_hidden=256
config:max_sampling_jobs=1
config:max_copying_jobs=1
config:barriered_epoch=1
config:presample_epoch=2
config:omp_thread_num=6
config:unsupervised=False
config:amp=True
config:rolling=0
config:fanout=[25, 10]
config:lr=0.003
config:dropout=0.5
config:single_gpu=False
config:max_num_step=100000
config:validate_configs=False
config:report_acc=0
config:dataset_path=/nvme/samgraph/com-friendster
config:torch_thread_num=8
config:train_workers=['cuda:0', 'cuda:1', 'cuda:2', 'cuda:3', 'cuda:4', 'cuda:5']
config:sample_workers=['cuda:6', 'cuda:7']
config:num_fanout=2
config:num_layer=2
config:_run_mode=RunMode.FGNN
config:_log_level=warn
config:_profile_level=3
config:_empty_feat=0
config:_arch=5
config:_sample_type=5
config:_cache_policy=13
test_result:init:input_scale_factor=1.1
Set parameter WLSAccessID
Set parameter WLSSecret
Set parameter LicenseID
Set parameter TimeLimit to value 200
Set parameter MIPGap to value 0.05
Set parameter GomoryPasses to value 0
Set parameter Aggregate to value 0
Set parameter LogFile to value "cppsolver.log"
Set parameter Threads to value 12
Academic license - for non-commercial use only - registered to xiaoniu.sxn@sjtu.edu.cn
Gurobi Optimizer version 9.5.2 build v9.5.2rc0 (linux64)
Thread count: 48 physical cores, 96 logical processors, using up to 12 threads
Academic license - for non-commercial use only - registered to xiaoniu.sxn@sjtu.edu.cn
Optimize a model with 115860 rows, 25407 columns and 286548 nonzeros
Model fingerprint: 0x6af57928
Variable types: 7 continuous, 25400 integer (25400 binary)
Coefficient statistics:
  Matrix range     [3e-04, 7e+02]
  Objective range  [1e+00, 1e+00]
  Bounds range     [1e+00, 1e+00]
  RHS range        [1e+00, 1e+03]
Found heuristic solution: objective 37845.156758
Presolve removed 91445 rows and 0 columns
Presolve time: 0.28s
Presolved: 24415 rows, 25407 columns, 98583 nonzeros
Found heuristic solution: objective 37845.156743
Variable types: 7 continuous, 25400 integer (25400 binary)

Root simplex log...

Iteration    Objective       Primal Inf.    Dual Inf.      Time
   32062    1.0139142e+03   3.017554e+05   0.000000e+00      5s
   46028    1.0382446e+03   3.978127e+03   0.000000e+00     10s
   52698    1.0382759e+03   1.634573e+02   0.000000e+00     15s
   55948    1.0382724e+03   0.000000e+00   0.000000e+00     18s

Root relaxation: objective 1.038272e+03, 55948 iterations, 18.06 seconds (19.99 work units)

    Nodes    |    Current Node    |     Objective Bounds      |     Work
 Expl Unexpl |  Obj  Depth IntInf | Incumbent    BestBd   Gap | It/Node Time

     0     0 1038.27236    0 11625 37845.1567 1038.27236  97.3%     -   19s
H    0     0                    15317.005258 1038.27236  93.2%     -   19s
H    0     0                    2306.5106686 1038.27236  55.0%     -   19s
H    0     0                    2118.1222458 1038.27236  51.0%     -   29s
H    0     0                    2066.3662617 1038.79233  49.7%     -   34s
H    0     0                    2066.3662386 1038.79233  49.7%     -   35s
     0     0 1038.79233    0 11003 2066.36624 1038.79233  49.7%     -   35s
     0     0 1038.81403    0 10922 2066.36624 1038.81403  49.7%     -   41s
     0     0 1038.81403    0 10926 2066.36624 1038.81403  49.7%     -   45s
     0     0 1038.81403    0 10929 2066.36624 1038.81403  49.7%     -   45s
H    0     0                    1955.2281182 1038.81403  46.9%     -   55s
     0     0 1040.28870    0 9768 1955.22812 1040.28870  46.8%     -   58s
     0     0 1040.47414    0 9757 1955.22812 1040.47414  46.8%     -   60s
H    0     0                    1945.8958521 1040.49864  46.5%     -   61s
     0     0 1040.49864    0 9849 1945.89585 1040.49864  46.5%     -   61s
     0     0 1040.49864    0 9863 1945.89585 1040.49864  46.5%     -   61s
H    0     0                    1701.4126473 1040.49864  38.8%     -   69s
     0     0 1041.25575    0 9920 1701.41265 1041.25575  38.8%     -   72s
H    0     0                    1613.6331454 1041.25575  35.5%     -   73s
     0     0 1042.05968    0 9304 1613.63315 1042.05968  35.4%     -   75s
     0     0 1042.13254    0 9307 1613.63315 1042.13254  35.4%     -   75s
H    0     0                    1612.4231521 1042.13618  35.4%     -   76s
     0     0 1042.13618    0 9379 1612.42315 1042.13618  35.4%     -   76s
     0     0 1042.13627    0 9401 1612.42315 1042.13627  35.4%     -   76s
H    0     0                    1597.5000406 1042.13627  34.8%     -   84s
H    0     0                    1506.9047468 1042.13627  30.8%     -   84s
H    0     0                    1473.6116390 1042.69762  29.2%     -   87s
     0     0 1042.69762    0 9593 1473.61164 1042.69762  29.2%     -   87s
H    0     0                    1413.5849296 1042.69762  26.2%     -   87s
H    0     0                    1381.5751081 1047.33445  24.2%     -   94s
     0     0 1047.33445    0 7662 1381.57511 1047.33445  24.2%     -   94s
     0     0 1051.86748    0 7587 1381.57511 1051.86748  23.9%     -   98s
     0     0 1052.48456    0 7396 1381.57511 1052.48456  23.8%     -   99s
     0     0 1052.62336    0 7308 1381.57511 1052.62336  23.8%     -   99s
     0     0 1052.62336    0 7303 1381.57511 1052.62336  23.8%     -  100s
H    0     0                    1368.6873158 1052.62336  23.1%     -  105s
H    0     0                    1340.3350492 1070.43488  20.1%     -  112s
H    0     0                    1327.7951192 1070.43488  19.4%     -  112s
     0     0 1070.43488    0 6529 1327.79512 1070.43488  19.4%     -  112s
H    0     0                    1274.3354174 1083.43888  15.0%     -  119s
     0     0 1083.43888    0 5218 1274.33542 1083.43888  15.0%     -  119s
     0     0 1085.70460    0 5062 1274.33542 1085.70460  14.8%     -  119s
     0     0 1085.72525    0 5054 1274.33542 1085.72525  14.8%     -  120s
H    0     0                    1230.4456622 1094.42543  11.1%     -  135s
     0     0 1094.42543    0 5086 1230.44566 1094.42543  11.1%     -  135s
H    0     0                    1226.4781026 1094.42543  10.8%     -  135s
     0     0 1101.36544    0 4308 1226.47810 1101.36544  10.2%     -  140s
     0     0 1101.58381    0 4343 1226.47810 1101.58381  10.2%     -  141s
     0     0 1101.58565    0 4361 1226.47810 1101.58565  10.2%     -  142s
     0     0 1105.32838    0 4018 1226.47810 1105.32838  9.88%     -  149s
     0     0 1109.08780    0 4023 1226.47810 1109.08780  9.57%     -  152s
     0     0 1109.09793    0 3882 1226.47810 1109.09793  9.57%     -  153s
H    0     0                    1219.5557230 1109.95251  8.99%     -  161s
     0     0 1109.95251    0 3952 1219.55572 1109.95251  8.99%     -  161s
     0     0 1111.12447    0 4006 1219.55572 1111.12447  8.89%     -  166s
     0     0 1111.21714    0 4146 1219.55572 1111.21714  8.88%     -  167s
     0     0 1111.21729    0 3999 1219.55572 1111.21729  8.88%     -  168s
     0     0 1112.01270    0 5559 1219.55572 1112.01270  8.82%     -  176s
     0     0 1112.50599    0 5929 1219.55572 1112.50599  8.78%     -  178s
     0     0 1112.53279    0 5819 1219.55572 1112.53279  8.78%     -  180s
H    0     0                    1202.3709214 1112.53279  7.47%     -  184s
H    0     0                    1190.3219268 1113.15508  6.48%     -  187s
     0     0 1113.15508    0 3526 1190.32193 1113.15508  6.48%     -  187s
H    0     0                    1185.7170498 1113.15508  6.12%     -  189s
     0     0 1113.18841    0 3540 1185.71705 1113.18841  6.12%     -  190s
     0     0 1113.29295    0 3296 1185.71705 1113.29295  6.11%     -  194s
     0     0 1113.29295    0 3226 1185.71705 1113.29295  6.11%     -  197s

Cutting planes:
  MIR: 603
  Zero half: 7901

Explored 1 nodes (210094 simplex iterations) in 200.01 seconds (192.42 work units)
Thread count was 12 (of 96 available processors)

Solution count 10: 1185.72 1190.32 1202.37 ... 1368.69

Time limit reached
Best objective 1.185717049843e+03, best bound 1.113292953157e+03, gap 6.1080%
coll_cache:optimal_local_rate=0.369132,0.391242,0.512333,0.343059,0.51269,0.345944,
coll_cache:optimal_remote_rate=0.627301,0.605191,0.4841,0.653375,0.483743,0.650489,
coll_cache:optimal_cpu_rate=0.00356691,0.00356691,0.00356691,0.00356691,0.00356691,0.00356691,
z=1185.72
test_result:init:feat_nbytes=67182966784
test_result:init:cache_nbytes=13441868800
test_result:init:feat_nbytes=67182966784
test_result:init:cache_nbytes=13439148032
test_result:init:feat_nbytes=67182966784
test_result:init:cache_nbytes=13443210240
test_result:init:feat_nbytes=67182966784
test_result:init:cache_nbytes=13440378880
test_result:init:feat_nbytes=67182966784
test_result:init:cache_nbytes=13441417216
test_result:init:feat_nbytes=67182966784
test_result:init:cache_nbytes=13443254272
test_result:init:cache_nbytes=0
test_result:init:cache_nbytes=0
test_result:init:cache_nbytes=0
test_result:init:cache_nbytes=0
test_result:init:cache_nbytes=0
test_result:init:cache_nbytes=0
[Train  Worker 3/6] Started with PID 78439(Tesla V100-SXM2-32GB)
[Train  Worker 3] run train for 4 epochs with 126 steps
[Train  Worker 3] Avg Epoch Time 0.4978 | Train Total Time(Profiler) 0.2084 | Copy Time 0.2868
[Train  Worker 2/6] Started with PID 78436(Tesla V100-SXM2-32GB)
[Train  Worker 2] run train for 4 epochs with 126 steps
[Train  Worker 2] Avg Epoch Time 0.4977 | Train Total Time(Profiler) 0.2101 | Copy Time 0.2853
[Train  Worker 4/6] Started with PID 78442(Tesla V100-SXM2-32GB)
[Train  Worker 4] run train for 4 epochs with 126 steps
[Train  Worker 4] Avg Epoch Time 0.4977 | Train Total Time(Profiler) 0.2092 | Copy Time 0.2863
[Train  Worker 5/6] Started with PID 78445(Tesla V100-SXM2-32GB)
[Train  Worker 5] run train for 4 epochs with 126 steps
[Train  Worker 5] Avg Epoch Time 0.4977 | Train Total Time(Profiler) 0.2354 | Copy Time 0.2599
[Train  Worker 1/6] Started with PID 78433(Tesla V100-SXM2-32GB)
[Train  Worker 1] run train for 4 epochs with 126 steps
[Train  Worker 1] Avg Epoch Time 0.4977 | Train Total Time(Profiler) 0.2135 | Copy Time 0.2821
[Train  Worker 0/6] Started with PID 78430(Tesla V100-SXM2-32GB)
[Train  Worker 0] run train for 4 epochs with 126 steps
Epoch 00000 | Epoch Time 1.9835 | Total Train Time(Profiler) 1.6638 | Copy Time 0.3162
Epoch 00001 | Epoch Time 0.4961 | Total Train Time(Profiler) 0.2262 | Copy Time 0.2674
Epoch 00002 | Epoch Time 0.4959 | Total Train Time(Profiler) 0.2273 | Copy Time 0.2665
Epoch 00003 | Epoch Time 0.5014 | Total Train Time(Profiler) 0.2288 | Copy Time 0.2702
[Train  Worker 0] Avg Epoch Time 0.4978 | Train Total Time(Profiler) 0.2274 | Copy Time 0.2681
[Sample Worker 1/2] Started with PID 78428(Tesla V100-SXM2-32GB)
[Sample Worker 1] run sample for 4 epochs with 63 steps
[Sample Worker 1] Avg Sample Total Time 0.4442 | Sampler Total Time(Profiler) 0.4436
    [Step(average) Profiler Level 1 E3 S62]
        L1  sample           0.005771 | send           0.001273
        L1  recv             0.000000 | copy           0.000000 | convert time 0.000000 | train  0.000000
        L1  feature nbytes 0.00 Bytes | label nbytes 0.00 Bytes
        L1  id nbytes      0.00 Bytes | graph nbytes 0.00 Bytes
        L1  miss nbytes    0.00 Bytes | remote nbytes 0.00 Bytes
        L1  num nodes         1189249 | num samples     1335760
    [Step(average) Profiler Level 2 E3 S62]
        L2  shuffle     0.000493 | core sample  0.001721 | id remap        0.003440
        L2  graph copy  0.000000 | id copy      0.000000 | cache feat copy 0.000000
        L2  last layer sample time 0.000329 | size 58941.084656
    [Step(average) Profiler Level 3 E3 S62]
        L3  khop sample coo  0.001417 | khop sort coo      0.000000 | khop count edge     0.000042 | khop compact edge 0.000219
        L3  walk sample coo  0.000000 | walk topk total    0.000000 | walk topk step1     0.000000 | walk topk step2   0.000000
        L3  walk topk step3  0.000000 | walk topk step4    0.000000 | walk topk step5     0.000000
        L3  walk topk step6  0.000000 | walk topk step7    0.000000
        L3  remap unique     0.000000 | remap populate     0.002900 | remap mapnode       0.000000 | remap mapedge     0.000539
        L3  cache get_index  0.000000 | cache copy_index   0.000000 | cache extract_miss  0.000000
        L3  cache copy_miss  0.000000 | cache combine_miss 0.000000 | cache combine cache 0.000000 | cache combine remote 0.000000
        L3  label extract  0.000000
    [Init Profiler Level 1]
        L1  init     7.5416 | sampler init    15.1785 | trainer init 0.0000
    [Init Profiler Level 2]
        L2  load ds        10.6142 | init queue           4.5485
        L2  presample       4.9681 | build interal ds     2.5850
        L2  build cache     0.0000
    [Init Profiler Level 3]
        L3  load dataset: mmap     7.5368 | copy         3.0773
        L3  dist queue: alloc      0.0018 | pin          4.5466 | push     0.0000
        L3  presample: init        0.2272
        L3  presample: sample      1.3981 | copy         0.1021
        L3  presample: count       2.2789 | sort         0.7032
        L3  presample: reset       0.0006 | get rank     0.0144
        L3  internal: cuda ctx     2.2988 | cuda stream     0.2807
[Sample Worker 0/2] Started with PID 78427(Tesla V100-SXM2-32GB)
[Sample Worker 0] run sample for 4 epochs with 63 steps
[Sample Worker 0] Avg Sample Total Time 0.4452 | Sampler Total Time(Profiler) 0.4438
test_result:sample_time=0.3636
test_result:get_cache_miss_index_time=0.0000
test_result:enqueue_samples_time=0.0802
test_result:epoch_time:sample_total=0.4452
[CUDA] cuda0: usage: 20.15 GB
[SAM] cuda0 data alloc        : 0.00 Bytes
[SAM] cuda0 workspace         : 2.55 GB
[SAM] cuda0 workspace reserve : 1.27 GB
[SAM] cuda0 total             : 2.55 GB
    [Step(average) Profiler Level 1 E3 S125]
        L1  sample           0.000000 | send           0.000000
        L1  recv             0.002374 | copy           0.013244 | convert time 0.000417 | train  0.009931
        L1  feature nbytes    1.13 GB | label nbytes   62.50 KB
        L1  id nbytes      0.00 Bytes | graph nbytes 0.00 Bytes
        L1  miss nbytes      30.96 MB | remote nbytes  663.20 MB
        L1  num nodes               0 | num samples           0
    [Step(average) Profiler Level 2 E3 S125]
        L2  shuffle     0.000000 | core sample  0.000000 | id remap        0.000000
        L2  graph copy  0.000004 | id copy      0.000000 | cache feat copy 0.010866
        L2  last layer sample time 0.000000 | size 0.000000
    [Step(average) Profiler Level 3 E3 S125]
        L3  khop sample coo  0.000000 | khop sort coo      0.000000 | khop count edge     0.000000 | khop compact edge 0.000000
        L3  walk sample coo  0.000000 | walk topk total    0.000000 | walk topk step1     0.000000 | walk topk step2   0.000000
        L3  walk topk step3  0.000000 | walk topk step4    0.000000 | walk topk step5     0.000000
        L3  walk topk step6  0.000000 | walk topk step7    0.000000
        L3  remap unique     0.000000 | remap populate     0.000000 | remap mapnode       0.000000 | remap mapedge     0.000000
        L3  cache get_index  0.000859 | cache copy_index   0.000000 | cache extract_miss  0.000000
        L3  cache copy_miss  0.000000 | cache combine_miss 0.008145 | cache combine cache 0.001650 | cache combine remote 0.007635
        L3  label extract  0.000475
    [Init Profiler Level 1]
        L1  init     7.5416 | sampler init     0.0000 | trainer init 264.0693
    [Init Profiler Level 2]
        L2  load ds         7.5368 | init queue           4.3323
        L2  presample       0.0000 | build interal ds     2.1421
        L2  build cache   257.5890
    [Init Profiler Level 3]
        L3  load dataset: mmap     7.5368 | copy         0.0000
        L3  dist queue: alloc      0.0018 | pin          4.3305 | push     0.0000
        L3  presample: init        0.0000
        L3  presample: sample      0.0000 | copy         0.0000
        L3  presample: count       0.0000 | sort         0.0000
        L3  presample: reset       0.0000 | get rank     0.0000
        L3  internal: cuda ctx     2.1420 | cuda stream     0.0001
|===========================================================================|
|                  PyTorch CUDA memory summary, device ID 0                 |
|---------------------------------------------------------------------------|
|            CUDA OOMs: 0            |        cudaMalloc retries: 0         |
|===========================================================================|
|        Metric         | Cur Usage  | Peak Usage | Tot Alloc  | Tot Freed  |
|---------------------------------------------------------------------------|
| Allocated memory      |   18607 KB |  734522 KB |  128522 MB |  128504 MB |
|       from large pool |   13742 KB |  733095 KB |  127770 MB |  127757 MB |
|       from small pool |    4865 KB |    6563 KB |     751 MB |     747 MB |
|---------------------------------------------------------------------------|
| Active memory         |   18608 KB |  734522 KB |  128522 MB |  128504 MB |
|       from large pool |   13742 KB |  733095 KB |  127770 MB |  127757 MB |
|       from small pool |    4866 KB |    6563 KB |     751 MB |     747 MB |
|---------------------------------------------------------------------------|
| GPU reserved memory   |  749568 KB |  749568 KB |  749568 KB |       0 B  |
|       from large pool |  741376 KB |  741376 KB |  741376 KB |       0 B  |
|       from small pool |    8192 KB |    8192 KB |    8192 KB |       0 B  |
|---------------------------------------------------------------------------|
| Non-releasable memory |   18256 KB |  649969 KB |  121835 MB |  121817 MB |
|       from large pool |   16978 KB |  648299 KB |  120860 MB |  120844 MB |
|       from small pool |    1278 KB |    3147 KB |     974 MB |     973 MB |
|---------------------------------------------------------------------------|
| Allocations           |      38    |      51    |    9363    |    9325    |
|       from large pool |       3    |      14    |    3696    |    3693    |
|       from small pool |      35    |      39    |    5667    |    5632    |
|---------------------------------------------------------------------------|
| Active allocs         |      39    |      51    |    9363    |    9324    |
|       from large pool |       3    |      14    |    3696    |    3693    |
|       from small pool |      36    |      39    |    5667    |    5631    |
|---------------------------------------------------------------------------|
| GPU reserved segments |      10    |      10    |      10    |       0    |
|       from large pool |       6    |       6    |       6    |       0    |
|       from small pool |       4    |       4    |       4    |       0    |
|---------------------------------------------------------------------------|
| Non-releasable allocs |      11    |      20    |    4136    |    4125    |
|       from large pool |       2    |       9    |    2167    |    2165    |
|       from small pool |       9    |      17    |    1969    |    1960    |
|---------------------------------------------------------------------------|
| Oversize allocations  |       0    |       0    |       0    |       0    |
|---------------------------------------------------------------------------|
| Oversize GPU segments |       0    |       0    |       0    |       0    |
|===========================================================================|

test_result:epoch_time:copy_time=0.2681
test_result:convert_time=0.0088
test_result:train_time=0.2186
test_result:epoch_time:train_total=0.2274
test_result:cache_percentage=0.2000
test_result:cache_hit_rate=1.0000
test_result:run_time=5.2863
